decision_x1=[0,4];
decision_x2=[0,4];
decision_x3=[0,4];
decision_x4=[0,4];
decision_x5=[0,4];
decision_x6=[0,4];
decision_x7=[0,4];
decision_x8=[0,4];
decision_x9=[0,4];
decision_x10=[0,4];
decision_x11=[0,4];
decision_x12=[0,4];
random_y1=[0,4];
random_y2=[0,4];
random_y3=[0,4];
random_y4=[0,4];
random_y5=[0,4];
random_y6=[0,4];
constraint_x3_x1=[
0,1,6.7|
0,2,5.1|
0,3,8.7|
0,4,3.9|
1,0,4.8|
1,2,1.9|
1,3,3.2|
1,4,8.3|
2,0,3.8|
2,1,6.1|
2,3,3|
2,4,9.3|
3,0,6|
3,1,6.3|
3,2,7.5|
3,4,8.9|
4,0,1.6|
4,1,3.4|
4,2,1.3|
4,3,3.1|
];
constraint_x4_x1=[
0,1,4.3|
0,2,5|
0,3,6.9|
0,4,9.3|
1,0,1.8|
1,2,3.6|
1,3,5.4|
1,4,2.7|
2,0,6.2|
2,1,8.7|
2,3,7.3|
2,4,9.6|
3,0,6.7|
3,1,1.9|
3,2,8|
3,4,9.3|
4,0,8.9|
4,1,9.4|
4,2,10|
4,3,8.3|
];
constraint_x4_x2=[
0,1,1.2|
0,2,7.1|
0,3,3.5|
0,4,1.3|
1,0,1.3|
1,2,3.9|
1,3,7.9|
1,4,2.3|
2,0,4.2|
2,1,8.5|
2,3,5|
2,4,7.5|
3,0,8.1|
3,1,8.8|
3,2,8.3|
3,4,6.9|
4,0,5.3|
4,1,2.3|
4,2,8.5|
4,3,3.2|
];
constraint_x5_x2=[
0,1,2|
0,2,4.6|
0,3,1.2|
0,4,0.65|
1,0,0.19|
1,2,4.1|
1,3,6.5|
1,4,1.4|
2,0,8.5|
2,1,2.2|
2,3,9.9|
2,4,7.6|
3,0,2.7|
3,1,0.4|
3,2,8.8|
3,4,8.4|
4,0,8.8|
4,1,1.8|
4,2,5.5|
4,3,1.8|
];
constraint_x6_x2=[
0,1,2.6|
0,2,4.4|
0,3,2.6|
0,4,8.9|
1,0,6.8|
1,2,7.8|
1,3,3.5|
1,4,2.3|
2,0,1.8|
2,1,2.9|
2,3,5.6|
2,4,3.1|
3,0,8|
3,1,8|
3,2,4.5|
3,4,6.3|
4,0,6|
4,1,0.42|
4,2,1.2|
4,3,5.7|
];
constraint_x6_x3=[
0,1,8.8|
0,2,5.6|
0,3,7.4|
0,4,4.8|
1,0,7.1|
1,2,3.7|
1,3,2.5|
1,4,0.94|
2,0,3.9|
2,1,5.2|
2,3,7.3|
2,4,3|
3,0,5.2|
3,1,0.94|
3,2,6.2|
3,4,4.2|
4,0,8.2|
4,1,3.5|
4,2,8.8|
4,3,1.1|
];
constraint_x6_x5=[
0,1,3.5|
0,2,3.9|
0,3,3.1|
0,4,8.6|
1,0,2.5|
1,2,5.7|
1,3,7.5|
1,4,9.9|
2,0,1.8|
2,1,8|
2,3,5.4|
2,4,0.59|
3,0,6.9|
3,1,7.1|
3,2,1.3|
3,4,1.8|
4,0,3.3|
4,1,4.2|
4,2,0.74|
4,3,3.1|
];
constraint_x7_x1=[
0,1,2.5|
0,2,7.7|
0,3,3|
0,4,5.8|
1,0,7.8|
1,2,0.99|
1,3,6.5|
1,4,4.1|
2,0,3.5|
2,1,3.7|
2,3,7.8|
2,4,5.3|
3,0,1.7|
3,1,5.7|
3,2,0.35|
3,4,8.8|
4,0,2.2|
4,1,0.32|
4,2,9.5|
4,3,8.4|
];
constraint_x7_x2=[
0,1,5.6|
0,2,8.9|
0,3,4.6|
0,4,9.5|
1,0,5.5|
1,2,2.8|
1,3,1.4|
1,4,7.4|
2,0,2.6|
2,1,0.12|
2,3,6|
2,4,6.2|
3,0,8.2|
3,1,2.9|
3,2,2.1|
3,4,4.2|
4,0,5.2|
4,1,7.6|
4,2,8.2|
4,3,9.7|
];
constraint_x7_x3=[
0,1,9.8|
0,2,1.2|
0,3,0.39|
0,4,0.27|
1,0,6.9|
1,2,5.7|
1,3,0.88|
1,4,6.3|
2,0,9.5|
2,1,2.7|
2,3,7.8|
2,4,6.9|
3,0,8.2|
3,1,0.47|
3,2,1.7|
3,4,8|
4,0,9.7|
4,1,3.4|
4,2,2.4|
4,3,4|
];
constraint_x7_x5=[
0,1,1.7|
0,2,7.3|
0,3,9.4|
0,4,2.4|
1,0,7.1|
1,2,3.4|
1,3,7.8|
1,4,6.7|
2,0,4|
2,1,3.5|
2,3,2.6|
2,4,5.2|
3,0,2|
3,1,6.8|
3,2,8.7|
3,4,5.2|
4,0,3.2|
4,1,9.3|
4,2,9.1|
4,3,4.7|
];
constraint_x8_x3=[
0,1,3.4|
0,2,6.8|
0,3,6.4|
0,4,4.5|
1,0,0.78|
1,2,2.1|
1,3,3|
1,4,8|
2,0,8.6|
2,1,9.2|
2,3,4.8|
2,4,0.47|
3,0,3|
3,1,7.8|
3,2,3.6|
3,4,5.4|
4,0,8.4|
4,1,6.2|
4,2,8.9|
4,3,1.9|
];
constraint_x8_x6=[
0,1,3|
0,2,3.9|
0,3,3.3|
0,4,1.6|
1,0,3.6|
1,2,4.5|
1,3,1.9|
1,4,2.3|
2,0,4.2|
2,1,5.3|
2,3,3.8|
2,4,3.4|
3,0,5.7|
3,1,0.16|
3,2,2|
3,4,6.5|
4,0,9.7|
4,1,7.7|
4,2,8.5|
4,3,7.3|
];
constraint_x8_x7=[
0,1,0.71|
0,2,9.1|
0,3,2.5|
0,4,6.4|
1,0,3.1|
1,2,9.9|
1,3,9.3|
1,4,7.2|
2,0,9.3|
2,1,2.2|
2,3,0.32|
2,4,9.6|
3,0,9.3|
3,1,6.3|
3,2,0.98|
3,4,6.2|
4,0,8.7|
4,1,8.9|
4,2,6.5|
4,3,8.9|
];
constraint_x9_x1=[
0,1,9.4|
0,2,0.24|
0,3,4.3|
0,4,9.1|
1,0,7.2|
1,2,3.2|
1,3,9.7|
1,4,8.7|
2,0,7.4|
2,1,9.9|
2,3,8.7|
2,4,5.2|
3,0,9.8|
3,1,3.5|
3,2,1.8|
3,4,3.5|
4,0,8.9|
4,1,0.25|
4,2,0.84|
4,3,3.3|
];
constraint_x9_x3=[
0,1,2.2|
0,2,7.7|
0,3,6.5|
0,4,4.2|
1,0,4.3|
1,2,0.24|
1,3,0.21|
1,4,9|
2,0,7.3|
2,1,8.3|
2,3,4.6|
2,4,9.9|
3,0,3.6|
3,1,3.4|
3,2,5.8|
3,4,3.7|
4,0,3.2|
4,1,2|
4,2,1.3|
4,3,2.6|
];
constraint_x9_x4=[
0,1,4.7|
0,2,2.4|
0,3,1.1|
0,4,6.7|
1,0,6.4|
1,2,0.6|
1,3,4.3|
1,4,6.2|
2,0,2.6|
2,1,5.1|
2,3,2.4|
2,4,5.5|
3,0,2.8|
3,1,8.8|
3,2,8.3|
3,4,2|
4,0,8.4|
4,1,9.4|
4,2,5.1|
4,3,3.5|
];
constraint_x9_x7=[
0,1,7.8|
0,2,9.1|
0,3,0.8|
0,4,6.2|
1,0,2.3|
1,2,6.4|
1,3,9.2|
1,4,3.8|
2,0,2|
2,1,9.7|
2,3,4.1|
2,4,4.3|
3,0,7.2|
3,1,2.3|
3,2,6.7|
3,4,1.9|
4,0,0.33|
4,1,4.8|
4,2,2.7|
4,3,6.1|
];
constraint_x9_x8=[
0,1,7|
0,2,0.46|
0,3,5.8|
0,4,2.6|
1,0,2.1|
1,2,1.1|
1,3,1.3|
1,4,4.9|
2,0,6.7|
2,1,3|
2,3,8|
2,4,0.93|
3,0,1|
3,1,5.4|
3,2,7.3|
3,4,3.1|
4,0,0.27|
4,1,5|
4,2,8.9|
4,3,0.95|
];
constraint_x10_x1=[
0,1,4.3|
0,2,0.28|
0,3,0.77|
0,4,4.6|
1,0,3.1|
1,2,0.65|
1,3,6.6|
1,4,3.2|
2,0,2.1|
2,1,6.7|
2,3,6.7|
2,4,3.7|
3,0,7.9|
3,1,5.2|
3,2,9.8|
3,4,4.5|
4,0,4.9|
4,1,3.1|
4,2,5|
4,3,4|
];
constraint_x10_x2=[
0,1,3.4|
0,2,8.6|
0,3,7.1|
0,4,1.8|
1,0,5.5|
1,2,6.7|
1,3,7|
1,4,0.56|
2,0,0.095|
2,1,5.8|
2,3,3.9|
2,4,0.46|
3,0,5.7|
3,1,6.5|
3,2,0.29|
3,4,1.8|
4,0,8.3|
4,1,4.9|
4,2,3.3|
4,3,0.29|
];
constraint_x10_x3=[
0,1,2.3|
0,2,1.9|
0,3,5.6|
0,4,7.5|
1,0,4.6|
1,2,3.9|
1,3,4.5|
1,4,2.5|
2,0,9.4|
2,1,8|
2,3,6.1|
2,4,3.1|
3,0,3.2|
3,1,6.6|
3,2,3.5|
3,4,7.7|
4,0,1.3|
4,1,2.6|
4,2,6.9|
4,3,8.1|
];
constraint_x10_x4=[
0,1,4.8|
0,2,6.4|
0,3,6.8|
0,4,9.9|
1,0,1.8|
1,2,8.9|
1,3,6.6|
1,4,9|
2,0,2.6|
2,1,7.4|
2,3,1.2|
2,4,3.8|
3,0,9.1|
3,1,8.4|
3,2,8.9|
3,4,6|
4,0,7|
4,1,4.1|
4,2,0.76|
4,3,5|
];
constraint_x10_x6=[
0,1,9.3|
0,2,3|
0,3,9.8|
0,4,1.4|
1,0,2.8|
1,2,6.2|
1,3,4.8|
1,4,3.3|
2,0,8|
2,1,8|
2,3,6.9|
2,4,3.8|
3,0,4|
3,1,6.7|
3,2,5.2|
3,4,1.9|
4,0,3.4|
4,1,8.6|
4,2,2.9|
4,3,4.5|
];
constraint_x10_x7=[
0,1,1.3|
0,2,5.4|
0,3,1.8|
0,4,0.87|
1,0,5.1|
1,2,2.3|
1,3,9.7|
1,4,0.73|
2,0,9.9|
2,1,6.1|
2,3,1.8|
2,4,9|
3,0,6.5|
3,1,6.2|
3,2,7|
3,4,5.1|
4,0,5.3|
4,1,2.5|
4,2,6.7|
4,3,5.9|
];
constraint_x10_x9=[
0,1,7.7|
0,2,1.4|
0,3,3.4|
0,4,8.1|
1,0,1.3|
1,2,0.013|
1,3,6.8|
1,4,3.6|
2,0,8.9|
2,1,7|
2,3,7.6|
2,4,3.9|
3,0,0.64|
3,1,2.7|
3,2,6.4|
3,4,0.26|
4,0,2.9|
4,1,9.3|
4,2,6|
4,3,2.8|
];
constraint_x11_x3=[
0,1,7.9|
0,2,2.4|
0,3,7.6|
0,4,0.56|
1,0,0.74|
1,2,1.5|
1,3,4.4|
1,4,8.3|
2,0,7.6|
2,1,2.4|
2,3,7.2|
2,4,5.5|
3,0,2.3|
3,1,3.2|
3,2,0.42|
3,4,8.4|
4,0,9.7|
4,1,1.5|
4,2,6|
4,3,2.1|
];
constraint_x11_x6=[
0,1,6.7|
0,2,5.6|
0,3,0.67|
0,4,1|
1,0,7.2|
1,2,8.8|
1,3,0.33|
1,4,4.8|
2,0,8.6|
2,1,5.1|
2,3,1.7|
2,4,6.6|
3,0,6.5|
3,1,4.7|
3,2,4|
3,4,4|
4,0,3.5|
4,1,3.5|
4,2,7|
4,3,7.6|
];
constraint_x11_x8=[
0,1,5.4|
0,2,8.2|
0,3,5.4|
0,4,8.2|
1,0,6.9|
1,2,2.5|
1,3,3.1|
1,4,6.3|
2,0,6.7|
2,1,4.1|
2,3,7.2|
2,4,8.1|
3,0,3.1|
3,1,8.4|
3,2,7.1|
3,4,1.4|
4,0,3|
4,1,8.7|
4,2,7.6|
4,3,9.2|
];
constraint_x12_x1=[
0,1,1.9|
0,2,3.5|
0,3,3.8|
0,4,2.7|
1,0,7.7|
1,2,4.9|
1,3,0.99|
1,4,9.4|
2,0,1.2|
2,1,6.6|
2,3,6.6|
2,4,9.7|
3,0,9.9|
3,1,3.1|
3,2,5.3|
3,4,6.1|
4,0,1.2|
4,1,0.69|
4,2,7.7|
4,3,1.9|
];
constraint_x12_x7=[
0,1,8.4|
0,2,3.4|
0,3,6.5|
0,4,8.4|
1,0,7.3|
1,2,1.5|
1,3,3.4|
1,4,3.3|
2,0,8.7|
2,1,4.5|
2,3,3.2|
2,4,6|
3,0,8|
3,1,5.4|
3,2,3.8|
3,4,9|
4,0,5.1|
4,1,6.9|
4,2,6.8|
4,3,9.2|
];
constraint_x12_x8=[
0,1,1.5|
0,2,4|
0,3,5.8|
0,4,0.23|
1,0,2.3|
1,2,9|
1,3,1.6|
1,4,5.3|
2,0,1.6|
2,1,0.43|
2,3,1.4|
2,4,9.4|
3,0,1.9|
3,1,6.6|
3,2,9.2|
3,4,1.2|
4,0,2.9|
4,1,7.4|
4,2,3.2|
4,3,2.8|
];
constraint_x12_x11=[
0,1,8.7|
0,2,0.38|
0,3,2.8|
0,4,4.3|
1,0,0.1|
1,2,1.9|
1,3,0.97|
1,4,5.3|
2,0,2.2|
2,1,4|
2,3,6|
2,4,1.9|
3,0,0.28|
3,1,3.1|
3,2,2.9|
3,4,2.2|
4,0,2.8|
4,1,3.6|
4,2,6.2|
4,3,6.9|
];
constraint_x1_y1=[
0,0,2.1|
0,1,3.5|
0,2,9.7|
0,3,3.2|
0,4,1.6|
1,0,6.1|
1,1,3.8|
1,2,1.7|
1,3,2.7|
1,4,10|
2,0,0.61|
2,1,8.6|
2,2,9.6|
2,3,3.4|
2,4,6.8|
3,0,9.4|
3,1,9.4|
3,2,4.6|
3,3,2.5|
3,4,6.1|
4,0,0.95|
4,1,7|
4,2,5.8|
4,3,9.6|
4,4,5.3|
];
constraint_x2_y2=[
0,0,5.2|
0,1,0.56|
0,2,9|
0,3,1.9|
0,4,4.1|
1,0,0.065|
1,1,4|
1,2,2.4|
1,3,7.4|
1,4,2.5|
2,0,7|
2,1,4.8|
2,2,9.5|
2,3,1|
2,4,0.12|
3,0,5.5|
3,1,2.9|
3,2,4.4|
3,3,6.8|
3,4,7|
4,0,9.5|
4,1,4|
4,2,9.2|
4,3,1.2|
4,4,0.051|
];
constraint_x3_y3=[
0,0,7.2|
0,1,3.3|
0,2,8|
0,3,8.1|
0,4,6.5|
1,0,1.1|
1,1,2.4|
1,2,2.7|
1,3,5.2|
1,4,0.65|
2,0,0.56|
2,1,5.3|
2,2,6.6|
2,3,8.9|
2,4,5.6|
3,0,7.3|
3,1,6.9|
3,2,1.9|
3,3,9.6|
3,4,4|
4,0,0.43|
4,1,9.5|
4,2,8.6|
4,3,1.1|
4,4,0.79|
];
constraint_x4_y4=[
0,0,6.2|
0,1,4.5|
0,2,0.79|
0,3,5|
0,4,8.4|
1,0,7.2|
1,1,0.63|
1,2,4.8|
1,3,5.2|
1,4,3.3|
2,0,3.4|
2,1,6.3|
2,2,9.8|
2,3,2.4|
2,4,5.9|
3,0,5.1|
3,1,9.9|
3,2,7.1|
3,3,1.2|
3,4,3.5|
4,0,8.8|
4,1,2.9|
4,2,3|
4,3,4.3|
4,4,2|
];
constraint_x5_y5=[
0,0,5.6|
0,1,2.4|
0,2,2.6|
0,3,9.9|
0,4,8.8|
1,0,1.6|
1,1,0.71|
1,2,1.9|
1,3,9.2|
1,4,4.1|
2,0,9.7|
2,1,8.2|
2,2,8|
2,3,2.2|
2,4,7.3|
3,0,6.3|
3,1,3.3|
3,2,1.7|
3,3,8.1|
3,4,7.2|
4,0,9.4|
4,1,3.4|
4,2,6.7|
4,3,6.9|
4,4,2.3|
];
constraint_x6_y6=[
0,0,9.7|
0,1,4.8|
0,2,1.9|
0,3,8|
0,4,1.4|
1,0,0.77|
1,1,3.6|
1,2,3.9|
1,3,9.8|
1,4,1.9|
2,0,5.1|
2,1,8.9|
2,2,2.6|
2,3,2.9|
2,4,1.6|
3,0,8.1|
3,1,0.84|
3,2,7.4|
3,3,1.8|
3,4,2.1|
4,0,5.8|
4,1,6.2|
4,2,9.5|
4,3,9|
4,4,6.6|
];
initial_distribution_y1=[0.16,0.2,0.29,0.23,0.11];
initial_distribution_y2=[0.043,0.21,0.27,0.21,0.26];
initial_distribution_y3=[0.23,0.2,0.3,0.085,0.19];
initial_distribution_y4=[0.24,0.053,0.18,0.26,0.27];
initial_distribution_y5=[0.25,0.077,0.24,0.092,0.34];
initial_distribution_y6=[0.22,0.18,0.38,0.068,0.15];
transition_y1=[
0.25,0.15,0.27,0.18,0.14|
0.36,0.099,0.3,0.14,0.099|
0.098,0.09,0.43,0.02,0.36|
0.38,0.066,0.31,0.19,0.053|
0.22,0.36,0.013,0.36,0.041|
];
transition_y2=[
0.28,0.01,0.23,0.34,0.14|
0.058,0.3,0.19,0.27,0.18|
0.31,0.25,0.34,0.0097,0.093|
0.12,0.12,0.23,0.28,0.25|
0.44,0.019,0.12,0.11,0.31|
];
transition_y3=[
0.25,0.35,0.21,0.029,0.16|
0.14,0.089,0.27,0.24,0.26|
0.2,0.24,0.35,0.019,0.18|
0.31,0.22,0.35,0.046,0.068|
0.36,0.46,0.05,0.1,0.031|
];
transition_y4=[
0.36,0.094,0.11,0.29,0.14|
0.33,0.2,0.24,0.15,0.085|
0.36,0.16,0.2,0.068,0.22|
0.27,0.31,0.092,0.03,0.3|
0.13,0.42,0.26,0.11,0.072|
];
transition_y5=[
0.21,0.22,0.35,0.16,0.055|
0.24,0.069,0.4,0.15,0.14|
0.31,0.11,0.26,0.13,0.19|
0.032,0.48,0.35,0.059,0.087|
0.22,0.16,0.17,0.07,0.39|
];
transition_y6=[
0.12,0.086,0.37,0.3,0.12|
0.18,0.31,0.16,0.32,0.029|
0.17,0.11,0.21,0.17,0.35|
0.0084,0.35,0.37,0.097,0.18|
0.26,0.074,0.24,0.27,0.15|
];
